(declare-fun var0 () String)
(declare-fun var1 () String)
(declare-fun var2 () String)
(declare-fun var3 () String)
(declare-fun var4 () String)
(declare-fun var5 () String)
(declare-fun var6 () String)
(declare-fun var7 () String)
(declare-fun var8 () String)
(declare-fun var9 () String)
(declare-fun var10 () String)
(declare-fun var11 () String)
(declare-fun var12 () String)
(declare-fun var13 () String)
(declare-fun var14 () String)
(declare-fun var15 () String)
(declare-fun var16 () String)
(declare-fun var17 () String)
(declare-fun var18 () String)
(declare-fun var19 () String)
(declare-fun var20 () String)
(declare-fun var21 () String)
(declare-fun var22 () String)
(declare-fun var23 () String)
(declare-fun var24 () String)
(declare-fun var25 () String)
(declare-fun var26 () String)
(declare-fun var27 () String)
(declare-fun var28 () String)
(declare-fun var29 () String)
(declare-fun var30 () String)
(declare-fun var31 () String)
(declare-fun var32 () String)
(declare-fun var33 () String)
(declare-fun var34 () String)
(declare-fun var35 () String)
(declare-fun var36 () String)
(declare-fun var37 () String)
(declare-fun var38 () String)
(declare-fun var39 () String)
(declare-fun var40 () String)
(declare-fun var41 () String)
(declare-fun var42 () String)
(declare-fun var43 () String)
(declare-fun var44 () String)
(declare-fun var45 () String)
(declare-fun var46 () String)
(declare-fun var47 () String)
(declare-fun var48 () String)
(declare-fun var49 () String)
(declare-fun var50 () String)
(declare-fun var51 () String)
(declare-fun var52 () String)
(declare-fun var53 () String)
(declare-fun var54 () String)
(declare-fun var55 () String)
(declare-fun var56 () String)
(declare-fun var57 () String)
(declare-fun var58 () String)
(declare-fun var59 () String)
(declare-fun var60 () String)
(assert (= var0 (Concat var1 var2)))
(assert (= var2 (Concat var3 var4)))
(assert (= var4 (Concat var5 var6)))
(assert (= var6 (Concat var7 var8)))
(assert (= var8 (Concat var9 var10)))
(assert (= var10 (Concat var11 var12)))
(assert (= var12 (Concat var13 var14)))
(assert (= var14 (Concat var15 var16)))
(assert (= var16 (Concat var17 var18)))
(assert (= var18 (Concat var19 var20)))
(assert (= var20 (Concat var21 var22)))
(assert (= var22 (Concat var23 var24)))
(assert (= var24 (Concat var25 var26)))
(assert (= var26 (Concat var27 var28)))
(assert (= var28 (Concat var29 var30)))
(assert (= var30 (Concat var31 var32)))
(assert (= var32 (Concat var33 var34)))
(assert (= var34 (Concat var35 var36)))
(assert (= var36 (Concat var37 var38)))
(assert (= var38 (Concat var39 var40)))
(assert (= var40 (Concat var41 var42)))
(assert (= var42 (Concat var43 var44)))
(assert (= var44 (Concat var45 var46)))
(assert (= var46 (Concat var47 var48)))
(assert (= var48 (Concat var49 var50)))
(assert (= var50 (Concat var51 var52)))
(assert (= var52 (Concat var53 var54)))
(assert (= var54 (Concat var55 var56)))
(assert (= var56 (Concat var57 var58)))
(assert (= var58 (Concat var59 var60)))
(assert (= var0 "solution"))
(assert (= "K" (CharAt var39 360)))
(assert (= "x" (CharAt var46 521)))
(assert (= "w" (CharAt var57 811)))
(assert (= ":" (CharAt var33 250)))
(assert (= "}" (CharAt var19 77)))
(assert (= "u" (CharAt var52 493)))
(assert (= "#" (CharAt var16 566)))
(assert (= "L" (CharAt var55 763)))
(assert (= "/" (CharAt var39 34)))
(assert (= "$" (CharAt var58 864)))
(assert (= "D" (CharAt var1 518)))
(assert (= "D" (CharAt var1 940)))
(assert (= "v" (CharAt var26 242)))
(assert (= "7" (CharAt var60 253)))
(assert (= "~" (CharAt var55 563)))
(assert (= "n" (CharAt var23 431)))
(assert (= "1" (CharAt var11 540)))
(assert (= "w" (CharAt var20 419)))
(assert (= ")" (CharAt var15 405)))
(assert (= "I" (CharAt var53 798)))
(assert (= "K" (CharAt var27 873)))
(assert (= "p" (CharAt var51 714)))
(assert (= "R" (CharAt var7 20)))
(assert (= "B" (CharAt var5 537)))
(assert (= "i" (CharAt var45 81)))
(assert (= "t" (CharAt var34 926)))
(assert (= "}" (CharAt var29 862)))
(assert (= "J" (CharAt var31 989)))
(assert (= "4" (CharAt var34 431)))
(assert (= "r" (CharAt var54 383)))
(assert (= "q" (CharAt var11 990)))
(assert (= "~" (CharAt var52 709)))
(assert (= ">" (CharAt var35 600)))
(assert (= "a" (CharAt var32 842)))
(assert (= "-" (CharAt var38 193)))
(assert (= "#" (CharAt var59 49)))
(assert (= "z" (CharAt var4 159)))
(assert (= "l" (CharAt var17 112)))
(assert (= "v" (CharAt var60 150)))
(assert (= "!" (CharAt var34 140)))
(assert (= "U" (CharAt var18 418)))
(assert (= "M" (CharAt var51 717)))
(assert (= "w" (CharAt var16 990)))
(assert (= "&" (CharAt var54 547)))
(assert (= "_" (CharAt var34 35)))
(assert (= "@" (CharAt var19 844)))
(assert (= "8" (CharAt var13 650)))
(assert (= "$" (CharAt var29 261)))
(assert (= "P" (CharAt var16 252)))
(assert (= "w" (CharAt var34 641)))
(assert (= "g" (CharAt var50 432)))
(assert (= "r" (CharAt var43 973)))
(assert (= ":" (CharAt var57 881)))
(assert (= "e" (CharAt var58 141)))
(assert (= "d" (CharAt var51 767)))
(assert (= "r" (CharAt var34 971)))
(assert (= "0" (CharAt var5 190)))
(assert (= "9" (CharAt var27 866)))
(assert (= "A" (CharAt var0 386)))
(assert (= "~" (CharAt var26 424)))
(assert (= "@" (CharAt var27 74)))
(assert (= "}" (CharAt var15 63)))
(assert (= "O" (CharAt var36 300)))
(assert (= "4" (CharAt var37 977)))
(assert (= "b" (CharAt var29 62)))
(assert (= "O" (CharAt var43 508)))
(assert (= "S" (CharAt var33 765)))
(assert (= "B" (CharAt var15 747)))
(assert (= "T" (CharAt var38 468)))
(assert (= ";" (CharAt var37 618)))
(assert (= "z" (CharAt var25 831)))
(assert (= "U" (CharAt var44 895)))
(assert (= "o" (CharAt var59 897)))
(assert (= "!" (CharAt var13 612)))
(assert (= "@" (CharAt var37 923)))
(assert (= "V" (CharAt var48 279)))
(assert (= "4" (CharAt var21 474)))
(assert (= "Y" (CharAt var56 112)))
(assert (= "Q" (CharAt var50 127)))
(assert (= "{" (CharAt var57 451)))
(assert (= "8" (CharAt var11 805)))
(assert (= "q" (CharAt var1 791)))
(assert (= "t" (CharAt var51 604)))
(assert (= "E" (CharAt var48 383)))
(assert (= "s" (CharAt var31 680)))
(assert (= "i" (CharAt var20 359)))
(assert (= "[" (CharAt var25 81)))
(assert (= "w" (CharAt var53 118)))
(assert (= "4" (CharAt var22 515)))
(assert (= "'" (CharAt var37 519)))
(assert (= "/" (CharAt var28 379)))
(assert (= "`" (CharAt var2 211)))
(assert (= "C" (CharAt var20 689)))
(assert (= "3" (CharAt var5 892)))
(assert (= "8" (CharAt var40 412)))
(assert (= "]" (CharAt var39 587)))
(assert (= "b" (CharAt var21 724)))
(assert (= "c" (CharAt var52 861)))
(assert (= "Y" (CharAt var19 667)))
(assert (= "2" (CharAt var47 912)))
(assert (= "X" (CharAt var12 415)))
(assert (= "H" (CharAt var20 448)))
(assert (= "e" (CharAt var33 98)))
(assert (= "z" (CharAt var60 0)))
(assert (= "Q" (CharAt var30 847)))
(assert (= ">" (CharAt var4 686)))
(assert (= "?" (CharAt var14 421)))
(assert (= "j" (CharAt var60 46)))
(assert (= "{" (CharAt var3 174)))
(assert (= "t" (CharAt var45 808)))
(assert (= ";" (CharAt var39 194)))
(assert (= "y" (CharAt var51 521)))
(assert (= "!" (CharAt var19 248)))
(assert (= "r" (CharAt var27 223)))
(assert (= "I" (CharAt var28 559)))
(assert (= "j" (CharAt var11 300)))
(assert (= "V" (CharAt var59 675)))
(assert (= "x" (CharAt var43 170)))
(assert (= "," (CharAt var44 965)))
(assert (= "b" (CharAt var57 95)))
(assert (= "%" (CharAt var45 242)))
(assert (= "a" (CharAt var58 370)))
(assert (= "c" (CharAt var22 53)))
(assert (= ")" (CharAt var30 417)))
(assert (= "=" (CharAt var32 507)))
(assert (= "|" (CharAt var32 540)))
(assert (= "]" (CharAt var17 946)))
(assert (= "#" (CharAt var35 786)))
(assert (= "N" (CharAt var55 193)))
(assert (= "P" (CharAt var43 502)))
(assert (= "/" (CharAt var32 872)))
(assert (= "J" (CharAt var52 556)))
(assert (= "M" (CharAt var52 714)))
(assert (= "^" (CharAt var25 924)))
(assert (= "i" (CharAt var29 501)))
(assert (= "l" (CharAt var13 523)))
(assert (= "I" (CharAt var48 858)))
(assert (= "." (CharAt var50 747)))
(assert (= "F" (CharAt var33 636)))
(assert (= "j" (CharAt var39 0)))
(assert (= "Y" (CharAt var6 498)))
(assert (= "{" (CharAt var9 57)))
(assert (= "]" (CharAt var20 964)))
(assert (= "s" (CharAt var7 90)))
(assert (= "'" (CharAt var57 300)))
(assert (= "0" (CharAt var26 256)))
(assert (= "6" (CharAt var50 623)))
(assert (= "K" (CharAt var16 811)))
(assert (= "g" (CharAt var49 986)))
(assert (= "Z" (CharAt var59 807)))
(assert (= "." (CharAt var9 902)))
(assert (= "D" (CharAt var46 408)))
(assert (= "D" (CharAt var36 827)))
(assert (= "d" (CharAt var13 447)))
(assert (= "s" (CharAt var27 526)))
(assert (= "=" (CharAt var29 240)))
(assert (= "^" (CharAt var22 361)))
(assert (= "S" (CharAt var51 298)))
(assert (= "%" (CharAt var57 771)))
(assert (= ")" (CharAt var46 712)))
(assert (= "^" (CharAt var57 477)))
(assert (= "!" (CharAt var21 730)))
(assert (= "\"" (CharAt var9 135)))
(assert (= "," (CharAt var27 706)))
(assert (= "}" (CharAt var3 603)))
(assert (= "U" (CharAt var36 488)))
(assert (= "z" (CharAt var2 760)))
(assert (= "v" (CharAt var52 184)))
(assert (= "H" (CharAt var34 8)))
(assert (= ";" (CharAt var15 994)))
(assert (= "!" (CharAt var10 450)))
(assert (= "|" (CharAt var29 24)))
(assert (= "[" (CharAt var41 675)))
(assert (= "K" (CharAt var56 344)))
(assert (= "?" (CharAt var3 393)))
(assert (= "," (CharAt var47 980)))
(assert (= "A" (CharAt var31 521)))
(assert (= "A" (CharAt var52 608)))
(assert (= "@" (CharAt var41 634)))
(assert (= "'" (CharAt var15 339)))
(assert (= "C" (CharAt var47 448)))
(assert (= "0" (CharAt var60 596)))
(assert (= "." (CharAt var23 535)))
(assert (= "m" (CharAt var42 920)))
(assert (= "u" (CharAt var28 99)))
(assert (= "b" (CharAt var53 157)))
(assert (= "@" (CharAt var7 922)))
(assert (= "=" (CharAt var38 699)))
(assert (= "|" (CharAt var11 925)))
(assert (= "x" (CharAt var6 589)))
(assert (= "G" (CharAt var4 740)))
(assert (= "!" (CharAt var37 622)))
(assert (= "\"" (CharAt var52 910)))
(assert (= "1" (CharAt var21 740)))
(assert (= "n" (CharAt var13 677)))
(assert (= "U" (CharAt var26 204)))
(assert (= "Z" (CharAt var60 883)))
(assert (= "z" (CharAt var6 516)))
(assert (= "<" (CharAt var16 558)))
(assert (= "h" (CharAt var49 258)))
(assert (= "&" (CharAt var15 776)))
(assert (= "9" (CharAt var32 889)))
(assert (= "q" (CharAt var42 336)))
(assert (= "W" (CharAt var30 65)))
(assert (= "5" (CharAt var18 724)))
(assert (= "p" (CharAt var19 90)))
(assert (= "_" (CharAt var55 615)))
(assert (= "n" (CharAt var47 773)))
(assert (= "v" (CharAt var53 785)))
(assert (= "C" (CharAt var34 989)))
(assert (= "%" (CharAt var52 699)))
(assert (= "X" (CharAt var8 638)))
(assert (= "." (CharAt var19 319)))
(assert (= "Z" (CharAt var5 827)))
(assert (= "c" (CharAt var0 807)))
(assert (= "j" (CharAt var34 91)))
(assert (= "U" (CharAt var54 329)))
(assert (= "t" (CharAt var47 783)))
(assert (= "j" (CharAt var38 496)))
(assert (= "b" (CharAt var4 823)))
(assert (= "#" (CharAt var1 243)))
(assert (= "^" (CharAt var10 744)))
(assert (= "I" (CharAt var53 275)))
(assert (= "e" (CharAt var16 767)))
(assert (= "J" (CharAt var14 34)))
(assert (= "g" (CharAt var7 86)))
(assert (= "j" (CharAt var44 634)))
(assert (= "U" (CharAt var8 632)))
(assert (= "^" (CharAt var49 952)))
(assert (= "7" (CharAt var22 925)))
(assert (= "h" (CharAt var0 285)))
(assert (= "S" (CharAt var19 571)))
(assert (= "h" (CharAt var50 343)))
(assert (= "d" (CharAt var1 848)))
(assert (= "," (CharAt var29 927)))
(assert (= "X" (CharAt var0 736)))
(assert (= "5" (CharAt var52 230)))
(assert (= "7" (CharAt var18 294)))
(assert (= "`" (CharAt var54 324)))
(assert (= "C" (CharAt var57 809)))
(assert (= "~" (CharAt var43 884)))
(assert (= "a" (CharAt var24 23)))
(assert (= "5" (CharAt var55 474)))
(assert (= "%" (CharAt var32 409)))
(assert (= "_" (CharAt var23 598)))
(assert (= "Y" (CharAt var4 976)))
(assert (= "0" (CharAt var36 69)))
(assert (= "T" (CharAt var49 807)))
(assert (= "N" (CharAt var56 944)))
(assert (= "m" (CharAt var5 651)))
(assert (= "T" (CharAt var19 624)))
(assert (= "t" (CharAt var7 785)))
(assert (= "$" (CharAt var21 192)))
(assert (= "[" (CharAt var37 91)))
(assert (= "B" (CharAt var44 337)))
(assert (= "." (CharAt var49 981)))
(assert (= "#" (CharAt var38 41)))
(assert (= "]" (CharAt var49 270)))
(assert (= "p" (CharAt var22 757)))
(assert (= "X" (CharAt var51 531)))
(assert (= "V" (CharAt var38 837)))
(assert (= "d" (CharAt var1 737)))
(assert (= "r" (CharAt var30 664)))
(assert (= "V" (CharAt var42 641)))
(assert (= "N" (CharAt var44 392)))
(assert (= "=" (CharAt var22 605)))
(assert (= "w" (CharAt var12 763)))
(assert (= "/" (CharAt var1 739)))
(assert (= "@" (CharAt var25 464)))
(assert (= "r" (CharAt var0 691)))
(assert (= "s" (CharAt var31 309)))
(assert (= "g" (CharAt var41 169)))
(assert (= "u" (CharAt var33 303)))
(assert (= "n" (CharAt var3 414)))
(assert (= "|" (CharAt var57 101)))
(assert (= ":" (CharAt var26 588)))
(assert (= "e" (CharAt var2 244)))
(assert (= "Z" (CharAt var35 661)))
(assert (= "." (CharAt var29 331)))
(assert (= "z" (CharAt var40 737)))
(assert (= ";" (CharAt var55 427)))
(assert (= "U" (CharAt var0 838)))
(assert (= "A" (CharAt var9 509)))
(assert (= "w" (CharAt var33 557)))
(assert (= "(" (CharAt var56 866)))
(assert (= "n" (CharAt var15 954)))
(assert (= "=" (CharAt var36 734)))
(assert (= "|" (CharAt var26 405)))
(assert (= "R" (CharAt var51 660)))
(assert (= "o" (CharAt var53 273)))
(assert (= "M" (CharAt var13 865)))
(assert (= "\"" (CharAt var4 153)))
(assert (= "z" (CharAt var49 275)))
(assert (= "I" (CharAt var58 835)))
(assert (= "W" (CharAt var0 642)))
(assert (= "@" (CharAt var48 826)))
(assert (= "`" (CharAt var54 595)))
(assert (= "$" (CharAt var8 295)))
(assert (= "`" (CharAt var26 688)))
(assert (= "9" (CharAt var15 868)))
(assert (= "g" (CharAt var18 127)))
(assert (= ">" (CharAt var34 224)))
(assert (= "P" (CharAt var50 938)))
(assert (= "|" (CharAt var51 979)))
(assert (= "{" (CharAt var1 944)))
(assert (= "R" (CharAt var0 981)))
(assert (= "f" (CharAt var10 672)))
(assert (= "E" (CharAt var32 584)))
(assert (= "j" (CharAt var3 54)))
(assert (= "U" (CharAt var12 934)))
(assert (= "+" (CharAt var55 716)))
(assert (= "v" (CharAt var0 69)))
(assert (= "u" (CharAt var55 0)))
(assert (= "S" (CharAt var16 860)))
(assert (= "/" (CharAt var47 651)))
(assert (= "9" (CharAt var6 690)))
(assert (= "?" (CharAt var8 95)))
(assert (= "b" (CharAt var35 723)))
(assert (= "\"" (CharAt var44 287)))
(assert (= "(" (CharAt var11 811)))
(assert (= ">" (CharAt var42 653)))
(assert (= "H" (CharAt var24 709)))
(assert (= "^" (CharAt var54 723)))
(assert (= "'" (CharAt var5 668)))
(assert (= "|" (CharAt var4 916)))
(assert (= "l" (CharAt var48 49)))
(assert (= ":" (CharAt var51 999)))
(assert (= "~" (CharAt var58 526)))
(assert (= "?" (CharAt var56 615)))
(assert (= "F" (CharAt var31 734)))
(assert (= "m" (CharAt var37 689)))
(assert (= "z" (CharAt var15 557)))
(assert (= "{" (CharAt var13 339)))
(assert (= "H" (CharAt var11 871)))
(assert (= "h" (CharAt var20 229)))
(assert (= "8" (CharAt var31 769)))
(assert (= "n" (CharAt var26 947)))
(assert (= "h" (CharAt var40 560)))
(assert (= "p" (CharAt var41 560)))
(assert (= "!" (CharAt var33 741)))
(assert (= "=" (CharAt var26 777)))
(assert (= "<" (CharAt var16 337)))
(assert (= "Q" (CharAt var40 781)))
(assert (= ">" (CharAt var38 387)))
(assert (= "(" (CharAt var53 910)))
(assert (= "Z" (CharAt var5 509)))
(assert (= "k" (CharAt var24 433)))
(assert (= "e" (CharAt var23 215)))
(assert (= "p" (CharAt var60 422)))
(assert (= "3" (CharAt var49 406)))
(assert (= "h" (CharAt var9 536)))
(assert (= "r" (CharAt var60 23)))
(assert (= "M" (CharAt var26 699)))
(assert (= ";" (CharAt var25 360)))
(assert (= "#" (CharAt var43 914)))
(assert (= "d" (CharAt var33 807)))
(assert (= "M" (CharAt var27 375)))
(assert (= "E" (CharAt var35 687)))
(assert (= "x" (CharAt var7 228)))
(assert (= "q" (CharAt var33 101)))
(assert (= "#" (CharAt var10 327)))
(assert (= "V" (CharAt var25 594)))
(assert (= "0" (CharAt var32 1000)))
(assert (= "N" (CharAt var55 516)))
(assert (= "*" (CharAt var10 835)))
(assert (= "v" (CharAt var55 666)))
(assert (= "H" (CharAt var26 810)))
(assert (= ">" (CharAt var40 91)))
(assert (= "3" (CharAt var58 768)))
(assert (= "I" (CharAt var23 231)))
(assert (= "(" (CharAt var1 252)))
(assert (= "'" (CharAt var6 546)))
(assert (= "y" (CharAt var53 773)))
(assert (= "g" (CharAt var3 486)))
(assert (= "^" (CharAt var20 660)))
(assert (= "w" (CharAt var31 929)))
(assert (= "Y" (CharAt var30 846)))
(assert (= "E" (CharAt var39 924)))
(assert (= "n" (CharAt var47 901)))
(assert (= "g" (CharAt var5 659)))
(assert (= "t" (CharAt var24 365)))
(assert (= "c" (CharAt var51 318)))
(assert (= "]" (CharAt var8 842)))
(assert (= "@" (CharAt var33 189)))
(assert (= "y" (CharAt var2 247)))
(assert (= ")" (CharAt var33 239)))
(assert (= "f" (CharAt var24 200)))
(assert (= "]" (CharAt var30 750)))
(assert (= "4" (CharAt var5 783)))
(assert (= "w" (CharAt var8 995)))
(assert (= "L" (CharAt var5 825)))
(assert (= "b" (CharAt var18 888)))
(assert (= "l" (CharAt var32 408)))
(assert (= "8" (CharAt var28 603)))
(assert (= "B" (CharAt var8 120)))
(assert (= "{" (CharAt var60 427)))
(assert (= ")" (CharAt var41 573)))
(assert (= "F" (CharAt var45 896)))
(assert (= "P" (CharAt var8 70)))
(assert (= "!" (CharAt var24 494)))
(assert (= "_" (CharAt var12 880)))
(assert (= "A" (CharAt var16 167)))
(assert (= "w" (CharAt var45 171)))
(assert (= "D" (CharAt var32 278)))
(assert (= "\"" (CharAt var49 694)))
(assert (= "W" (CharAt var57 545)))
(assert (= "p" (CharAt var53 285)))
(assert (= "E" (CharAt var44 854)))
(assert (= "@" (CharAt var11 936)))
(assert (= "$" (CharAt var17 451)))
(assert (= ":" (CharAt var44 0)))
(assert (= "3" (CharAt var25 645)))
(assert (= "o" (CharAt var1 717)))
(assert (= "c" (CharAt var1 758)))
(assert (= "." (CharAt var21 747)))
(assert (= "w" (CharAt var44 548)))
(assert (= "%" (CharAt var28 147)))
(assert (= "=" (CharAt var31 405)))
(assert (= "P" (CharAt var24 10)))
(assert (= "8" (CharAt var58 193)))
(assert (= "}" (CharAt var11 5)))
(assert (= "<" (CharAt var1 369)))
(assert (= "m" (CharAt var29 119)))
(assert (= "2" (CharAt var36 637)))
(assert (= "@" (CharAt var8 112)))
(assert (= "2" (CharAt var6 487)))
(assert (= "M" (CharAt var43 793)))
(assert (= "X" (CharAt var14 816)))
(assert (= ";" (CharAt var48 740)))
(assert (= "t" (CharAt var45 449)))
(assert (= "d" (CharAt var12 33)))
(assert (= "O" (CharAt var12 849)))
(assert (= ":" (CharAt var47 152)))
(assert (= "j" (CharAt var6 335)))
(assert (= "-" (CharAt var1 654)))
(assert (= "6" (CharAt var31 74)))
(assert (= "U" (CharAt var36 451)))
(assert (= "R" (CharAt var59 465)))
(assert (= "?" (CharAt var28 55)))
(assert (= "/" (CharAt var15 856)))
(assert (= "g" (CharAt var2 251)))
(assert (= "s" (CharAt var43 969)))
(assert (= "H" (CharAt var1 637)))
(assert (= "\\" (CharAt var58 755)))
(assert (= "8" (CharAt var4 842)))
(assert (= "a" (CharAt var16 993)))
(assert (= "o" (CharAt var15 885)))
(assert (= "2" (CharAt var30 412)))
(assert (= "\\" (CharAt var57 702)))
(assert (= "'" (CharAt var14 388)))
(assert (= "@" (CharAt var23 126)))
(assert (= "5" (CharAt var13 771)))
(assert (= "{" (CharAt var46 876)))
(assert (= "Y" (CharAt var49 413)))
(assert (= "n" (CharAt var47 478)))
(assert (= "#" (CharAt var12 531)))
(assert (= "I" (CharAt var9 959)))
(assert (= "W" (CharAt var51 353)))
(assert (= "(" (CharAt var58 757)))
(assert (= "}" (CharAt var41 830)))
(assert (= "," (CharAt var47 558)))
(assert (= "I" (CharAt var15 522)))
(assert (= "K" (CharAt var38 6)))
(assert (= "{" (CharAt var18 370)))
(assert (= "_" (CharAt var49 628)))
(assert (= "D" (CharAt var44 11)))
(assert (= "6" (CharAt var12 661)))
(assert (= "i" (CharAt var42 439)))
(assert (= "K" (CharAt var24 320)))
(assert (= "Z" (CharAt var26 926)))
(assert (= "T" (CharAt var21 193)))
(assert (= "m" (CharAt var3 41)))
(assert (= ":" (CharAt var50 988)))
(assert (= "[" (CharAt var55 688)))
(assert (= ">" (CharAt var28 208)))
(assert (= "V" (CharAt var60 56)))
(assert (= "u" (CharAt var21 754)))
(assert (= "\"" (CharAt var48 398)))
(assert (= "/" (CharAt var8 377)))
(assert (= "W" (CharAt var58 738)))
(assert (= "S" (CharAt var50 840)))
(assert (= "J" (CharAt var16 535)))
(assert (= "4" (CharAt var45 671)))
(assert (= "9" (CharAt var6 578)))
(assert (= "n" (CharAt var52 136)))
(assert (= "?" (CharAt var24 666)))
(assert (= "m" (CharAt var42 435)))
(assert (= "[" (CharAt var33 547)))
(assert (= "K" (CharAt var22 323)))
(assert (= "5" (CharAt var0 481)))
(assert (= "Q" (CharAt var48 753)))
(assert (= "r" (CharAt var40 92)))
(assert (= "Z" (CharAt var4 314)))
(assert (= "7" (CharAt var23 88)))
(assert (= "&" (CharAt var55 519)))
(assert (= "B" (CharAt var39 216)))
(assert (= "v" (CharAt var39 344)))
(assert (= "S" (CharAt var4 29)))
(assert (= "-" (CharAt var1 888)))
(assert (= "2" (CharAt var24 106)))
(assert (= "T" (CharAt var0 873)))
(assert (= "d" (CharAt var24 904)))
(assert (= "8" (CharAt var38 900)))
(assert (= "b" (CharAt var48 986)))
(assert (= ">" (CharAt var18 662)))
(assert (= "k" (CharAt var0 733)))
(assert (= "!" (CharAt var39 162)))
(assert (= "D" (CharAt var19 192)))
(assert (= "N" (CharAt var20 355)))
(assert (= "<" (CharAt var6 610)))
(assert (= "*" (CharAt var52 760)))
(assert (= "F" (CharAt var32 437)))
(assert (= "_" (CharAt var13 135)))
(assert (= "W" (CharAt var7 502)))
(assert (= "c" (CharAt var17 716)))
(assert (= "E" (CharAt var4 336)))
(assert (= "~" (CharAt var27 640)))
(assert (= "I" (CharAt var21 533)))
(assert (= "W" (CharAt var50 69)))
(assert (= "N" (CharAt var29 887)))
(assert (= "k" (CharAt var26 31)))
(assert (= "C" (CharAt var49 97)))
(assert (= "&" (CharAt var16 304)))
(assert (= "h" (CharAt var16 290)))
(assert (= "b" (CharAt var57 488)))
(assert (= "E" (CharAt var54 520)))
(assert (= "D" (CharAt var2 412)))
(assert (= "h" (CharAt var57 711)))
(assert (= "/" (CharAt var34 870)))
(assert (= "3" (CharAt var57 16)))
(assert (= "{" (CharAt var7 362)))
(assert (= "6" (CharAt var47 989)))
(assert (= "n" (CharAt var44 473)))
(assert (= "N" (CharAt var33 186)))
(assert (= "j" (CharAt var42 76)))
(assert (= "%" (CharAt var31 752)))
(assert (= "<" (CharAt var5 988)))
(assert (= "\"" (CharAt var34 923)))
(assert (= "'" (CharAt var45 798)))
(assert (= "y" (CharAt var22 771)))
(assert (= "|" (CharAt var57 740)))
(assert (= "q" (CharAt var4 787)))
(assert (= "I" (CharAt var30 111)))
(assert (= "@" (CharAt var14 913)))
(assert (= "c" (CharAt var40 619)))
(assert (= "$" (CharAt var55 265)))
(assert (= "V" (CharAt var55 282)))
(assert (= "s" (CharAt var55 18)))
(assert (= "Q" (CharAt var0 819)))
(assert (= "q" (CharAt var34 219)))
(assert (= "E" (CharAt var37 10)))
(assert (= "(" (CharAt var55 817)))
(assert (= "Z" (CharAt var2 745)))
(assert (= "S" (CharAt var14 226)))
(assert (= "F" (CharAt var50 310)))
(assert (= "f" (CharAt var24 873)))
(assert (= "\\" (CharAt var44 224)))
(assert (= "C" (CharAt var5 223)))
(assert (= "X" (CharAt var45 461)))
(assert (= "S" (CharAt var37 951)))
(assert (= "q" (CharAt var1 261)))
(assert (= "9" (CharAt var27 323)))
(assert (= "\\" (CharAt var3 912)))
(assert (= "&" (CharAt var24 373)))
(assert (= "?" (CharAt var57 900)))
(assert (= "X" (CharAt var59 701)))
(assert (= "}" (CharAt var7 398)))
(assert (= "B" (CharAt var53 820)))
(assert (= "#" (CharAt var27 665)))
(assert (= "-" (CharAt var52 586)))
(assert (= "N" (CharAt var21 715)))
(assert (= "I" (CharAt var4 25)))
(assert (= "3" (CharAt var32 957)))
(assert (= "=" (CharAt var5 327)))
(assert (= "}" (CharAt var18 18)))
(assert (= "K" (CharAt var24 912)))
(assert (= "k" (CharAt var13 511)))
(assert (= "Q" (CharAt var10 967)))
(assert (= "?" (CharAt var40 992)))
(assert (= "." (CharAt var40 169)))
(assert (= "j" (CharAt var23 31)))
(assert (= "9" (CharAt var0 898)))
(assert (= "X" (CharAt var60 885)))
(assert (= "&" (CharAt var53 947)))
(assert (= "=" (CharAt var44 531)))
(assert (= "1" (CharAt var57 222)))
(assert (= "F" (CharAt var55 151)))
(assert (= "@" (CharAt var53 841)))
(assert (= "3" (CharAt var12 599)))
(assert (= "0" (CharAt var44 377)))
(assert (= "g" (CharAt var56 348)))
(assert (= "u" (CharAt var45 413)))
(assert (= "=" (CharAt var16 51)))
(assert (= "p" (CharAt var7 494)))
(assert (= "J" (CharAt var4 941)))
(assert (= "." (CharAt var58 52)))
(assert (= "d" (CharAt var54 899)))
(assert (= ":" (CharAt var56 301)))
(assert (= "o" (CharAt var28 879)))
(assert (= "s" (CharAt var57 906)))
(assert (= "'" (CharAt var56 383)))
(check-sat)